
Gurobi 8.1.1 (win64) logging started 11/23/19 16:03:06

Changed value of parameter LogFile to logs/full/feas/full-06-15-0.log
   Prev: gurobi.log  Default: 
Changed value of parameter LogToConsole to 0
   Prev: 1  Min: 0  Max: 1  Default: 1
Changed value of parameter TimeLimit to 3600.0
   Prev: 1e+100  Min: 0.0  Max: 1e+100  Default: 1e+100
Optimize a model with 2127 rows, 1002 columns and 8052 nonzeros
Variable types: 0 continuous, 1002 integer (990 binary)
Coefficient statistics:
  Matrix range     [1e+00, 2e+02]
  Objective range  [1e+00, 1e+00]
  Bounds range     [1e+00, 1e+00]
  RHS range        [1e+00, 2e+02]
Presolve time: 0.03s
Presolved: 2127 rows, 1002 columns, 8052 nonzeros
Variable types: 0 continuous, 1002 integer (990 binary)

Root relaxation: objective 6.600000e+01, 132 iterations, 0.00 seconds

    Nodes    |    Current Node    |     Objective Bounds      |     Work
 Expl Unexpl |  Obj  Depth IntInf | Incumbent    BestBd   Gap | It/Node Time

     0     0   66.00000    0   39          -   66.00000      -     -    0s
     0     0   66.00000    0   81          -   66.00000      -     -    0s
     0     0   66.00000    0   40          -   66.00000      -     -    0s
     0     0   66.00000    0   40          -   66.00000      -     -    0s
     0     0   66.00000    0   37          -   66.00000      -     -    0s
H    0     0                     108.0000000   66.00000  38.9%     -    0s
     0     0   66.00000    0   39  108.00000   66.00000  38.9%     -    0s
H    0     0                     104.0000000   66.00000  36.5%     -    0s
     0     0   67.99687    0   45  104.00000   67.99687  34.6%     -    0s
     0     0   68.31672    0   42  104.00000   68.31672  34.3%     -    0s
     0     0   68.31672    0   42  104.00000   68.31672  34.3%     -    0s
     0     0   77.51581    0   25  104.00000   77.51581  25.5%     -    0s
     0     0   77.53662    0   25  104.00000   77.53662  25.4%     -    0s
     0     0   78.99296    0   24  104.00000   78.99296  24.0%     -    0s
H    0     0                     103.0000000   78.99296  23.3%     -    0s
H    0     0                     102.0000000   78.99296  22.6%     -    0s
     0     0   79.00279    0   23  102.00000   79.00279  22.5%     -    0s
     0     0   79.50000    0   24  102.00000   79.50000  22.1%     -    0s
     0     0   79.50000    0   24  102.00000   79.50000  22.1%     -    0s
     0     0   80.18429    0   32  102.00000   80.18429  21.4%     -    0s
     0     0   80.24324    0   32  102.00000   80.24324  21.3%     -    0s
     0     0   80.24324    0   32  102.00000   80.24324  21.3%     -    0s
     0     0   80.24324    0   31  102.00000   80.24324  21.3%     -    0s
     0     0   80.24324    0   32  102.00000   80.24324  21.3%     -    0s
     0     0   80.43122    0   32  102.00000   80.43122  21.1%     -    0s
     0     0   80.43122    0   31  102.00000   80.43122  21.1%     -    0s
     0     0   80.61609    0   84  102.00000   80.61609  21.0%     -    0s
H    0     0                     101.0000000   80.61609  20.2%     -    0s
     0     0   80.64065    0   81  101.00000   80.64065  20.2%     -    0s
     0     0   80.64065    0   75  101.00000   80.64065  20.2%     -    0s
     0     0   80.72590    0   70  101.00000   80.72590  20.1%     -    0s
     0     0   80.72590    0   69  101.00000   80.72590  20.1%     -    0s
     0     0   80.72590    0   68  101.00000   80.72590  20.1%     -    0s
     0     0   80.75997    0   71  101.00000   80.75997  20.0%     -    0s
     0     0   80.75997    0   74  101.00000   80.75997  20.0%     -    0s
     0     0   80.75997    0   62  101.00000   80.75997  20.0%     -    0s
     0     0   80.75997    0   63  101.00000   80.75997  20.0%     -    0s
     0     0   80.75997    0   67  101.00000   80.75997  20.0%     -    0s
     0     0   82.00000    0   26  101.00000   82.00000  18.8%     -    1s
     0     0   82.00000    0   21  101.00000   82.00000  18.8%     -    1s
     0     0   82.00000    0   21  101.00000   82.00000  18.8%     -    1s
     0     0   82.00000    0   33  101.00000   82.00000  18.8%     -    1s
     0     0   82.00000    0   36  101.00000   82.00000  18.8%     -    1s
     0     0   82.85479    0   38  101.00000   82.85479  18.0%     -    1s
     0     0   88.00000    0   30  101.00000   88.00000  12.9%     -    1s
     0     0   88.00000    0   27  101.00000   88.00000  12.9%     -    1s
     0     0   88.39280    0   46  101.00000   88.39280  12.5%     -    1s
     0     0   88.39280    0   46  101.00000   88.39280  12.5%     -    1s
     0     0   88.76812    0   77  101.00000   88.76812  12.1%     -    1s
H    0     0                      99.0000000   88.76812  10.3%     -    1s
     0     0   88.89685    0   73   99.00000   88.89685  10.2%     -    1s
     0     0   88.92401    0   73   99.00000   88.92401  10.2%     -    1s
     0     0   88.92488    0   74   99.00000   88.92488  10.2%     -    1s
     0     0   88.97624    0   46   99.00000   88.97624  10.1%     -    1s
     0     0   88.99127    0   49   99.00000   88.99127  10.1%     -    1s
     0     0   88.99127    0   50   99.00000   88.99127  10.1%     -    1s
     0     0   90.56068    0   52   99.00000   90.56068  8.52%     -    1s
     0     0   90.56068    0   52   99.00000   90.56068  8.52%     -    1s
     0     0   90.59529    0   49   99.00000   90.59529  8.49%     -    1s
     0     0   90.59529    0   50   99.00000   90.59529  8.49%     -    1s
     0     0   90.59529    0   48   99.00000   90.59529  8.49%     -    1s
     0     0   90.59529    0   50   99.00000   90.59529  8.49%     -    1s
     0     0   91.05839    0   42   99.00000   91.05839  8.02%     -    1s
     0     0   91.06362    0   44   99.00000   91.06362  8.02%     -    1s
     0     0   91.06362    0   47   99.00000   91.06362  8.02%     -    1s
     0     0   91.47125    0   43   99.00000   91.47125  7.60%     -    1s
     0     0   91.56127    0   46   99.00000   91.56127  7.51%     -    1s
     0     0   91.56428    0   49   99.00000   91.56428  7.51%     -    1s
     0     0   91.56428    0   49   99.00000   91.56428  7.51%     -    1s
     0     0   91.57226    0   47   99.00000   91.57226  7.50%     -    1s
     0     0   91.57226    0   47   99.00000   91.57226  7.50%     -    1s
     0     0   91.63152    0   50   99.00000   91.63152  7.44%     -    1s
     0     0   91.65543    0   47   99.00000   91.65543  7.42%     -    1s
     0     0   91.65543    0   48   99.00000   91.65543  7.42%     -    1s
     0     0   91.69854    0   48   99.00000   91.69854  7.38%     -    1s
     0     0   91.71899    0   47   99.00000   91.71899  7.35%     -    1s
     0     0   91.72469    0   48   99.00000   91.72469  7.35%     -    1s
     0     0   91.74690    0   47   99.00000   91.74690  7.33%     -    1s
     0     0   91.74791    0   48   99.00000   91.74791  7.33%     -    1s
     0     0   91.78895    0   46   99.00000   91.78895  7.28%     -    1s
     0     0   91.79261    0   45   99.00000   91.79261  7.28%     -    1s
     0     0   91.79261    0   50   99.00000   91.79261  7.28%     -    1s
     0     0   91.79304    0   47   99.00000   91.79304  7.28%     -    1s
     0     0   91.79304    0   46   99.00000   91.79304  7.28%     -    1s
     0     0   91.96822    0   42   99.00000   91.96822  7.10%     -    1s
     0     0   92.00267    0   41   99.00000   92.00267  7.07%     -    1s
     0     0   92.02654    0   43   99.00000   92.02654  7.04%     -    1s
     0     0   92.03347    0   44   99.00000   92.03347  7.04%     -    1s
     0     0   92.03347    0   46   99.00000   92.03347  7.04%     -    1s
     0     0   92.14250    0   46   99.00000   92.14250  6.93%     -    1s
     0     0   92.16174    0   48   99.00000   92.16174  6.91%     -    1s
     0     0   92.16174    0   50   99.00000   92.16174  6.91%     -    1s
     0     0   92.22041    0   48   99.00000   92.22041  6.85%     -    1s
     0     0   92.22041    0   48   99.00000   92.22041  6.85%     -    1s
     0     0   92.22207    0   46   99.00000   92.22207  6.85%     -    1s
     0     0   92.22207    0   44   99.00000   92.22207  6.85%     -    1s
     0     0   92.22207    0   44   99.00000   92.22207  6.85%     -    1s
     0     0   92.26643    0   36   99.00000   92.26643  6.80%     -    1s
     0     0   92.30695    0   34   99.00000   92.30695  6.76%     -    1s
     0     0   92.30695    0   34   99.00000   92.30695  6.76%     -    1s
     0     0   92.30695    0   47   99.00000   92.30695  6.76%     -    1s
     0     0   92.30695    0   32   99.00000   92.30695  6.76%     -    1s
H    0     0                      98.0000000   92.30695  5.81%     -    1s
     0     0   92.98713    0   30   98.00000   92.98713  5.12%     -    1s
     0     0   92.98713    0   30   98.00000   92.98713  5.12%     -    1s
     0     0   93.55544    0   32   98.00000   93.55544  4.54%     -    1s
     0     0   93.55544    0   32   98.00000   93.55544  4.54%     -    1s
     0     0   93.56775    0   36   98.00000   93.56775  4.52%     -    1s
     0     0   93.56775    0   39   98.00000   93.56775  4.52%     -    1s
     0     0   93.82700    0   33   98.00000   93.82700  4.26%     -    1s
     0     0   93.82700    0   33   98.00000   93.82700  4.26%     -    1s
     0     0   93.85676    0   34   98.00000   93.85676  4.23%     -    1s
     0     0   93.85719    0   34   98.00000   93.85719  4.23%     -    1s
     0     0   93.85719    0   33   98.00000   93.85719  4.23%     -    1s
     0     0   94.85946    0   23   98.00000   94.85946  3.20%     -    1s
     0     0   94.85946    0   23   98.00000   94.85946  3.20%     -    1s
     0     0   94.85946    0   23   98.00000   94.85946  3.20%     -    1s

Cutting planes:
  Gomory: 1
  Cover: 1
  Implied bound: 8
  Clique: 5
  MIR: 21

Explored 1 nodes (6415 simplex iterations) in 1.90 seconds
Thread count was 4 (of 4 available processors)

Solution count 7: 98 99 101 ... 108

Optimal solution found (tolerance 1.00e-04)
Best objective 9.800000000000e+01, best bound 9.800000000000e+01, gap 0.0000%

Gurobi 8.1.1 (win64) logging started 11/23/19 16:03:08

Changed value of parameter LogFile to logs/full/feas/full-06-15-0.log
   Prev: gurobi.log  Default: 
Changed value of parameter LogToConsole to 0
   Prev: 1  Min: 0  Max: 1  Default: 1
Changed value of parameter TimeLimit to 3600.0
   Prev: 1e+100  Min: 0.0  Max: 1e+100  Default: 1e+100
Optimize a model with 1167 rows, 549 columns and 4392 nonzeros
Variable types: 0 continuous, 549 integer (540 binary)
Coefficient statistics:
  Matrix range     [1e+00, 2e+02]
  Objective range  [1e+00, 1e+00]
  Bounds range     [1e+00, 1e+00]
  RHS range        [1e+00, 2e+02]
Presolve time: 0.02s
Presolved: 1167 rows, 549 columns, 4392 nonzeros
Variable types: 0 continuous, 549 integer (540 binary)

Root relaxation: objective 3.600000e+01, 116 iterations, 0.00 seconds

    Nodes    |    Current Node    |     Objective Bounds      |     Work
 Expl Unexpl |  Obj  Depth IntInf | Incumbent    BestBd   Gap | It/Node Time

     0     0   36.00000    0   61          -   36.00000      -     -    0s
     0     0   36.00000    0   68          -   36.00000      -     -    0s
     0     0   36.00000    0   62          -   36.00000      -     -    0s
     0     0   36.00000    0   61          -   36.00000      -     -    0s
H    0     0                      98.0000000   36.00000  63.3%     -    0s
     0     0   36.00000    0   60   98.00000   36.00000  63.3%     -    0s
H    0     0                      83.0000000   36.00000  56.6%     -    0s
     0     0   41.19939    0   48   83.00000   41.19939  50.4%     -    0s
     0     0   42.79080    0   46   83.00000   42.79080  48.4%     -    0s
     0     0   48.33028    0   41   83.00000   48.33028  41.8%     -    0s
     0     0   49.66575    0   41   83.00000   49.66575  40.2%     -    0s
     0     0   49.66575    0   42   83.00000   49.66575  40.2%     -    0s
     0     0   49.70871    0   41   83.00000   49.70871  40.1%     -    0s
     0     0   49.70871    0   40   83.00000   49.70871  40.1%     -    0s
     0     0   49.92369    0   80   83.00000   49.92369  39.9%     -    0s
     0     0   50.02817    0   78   83.00000   50.02817  39.7%     -    0s
     0     0   50.02817    0   79   83.00000   50.02817  39.7%     -    0s
     0     0   52.03348    0   75   83.00000   52.03348  37.3%     -    0s
     0     0   52.03348    0   74   83.00000   52.03348  37.3%     -    0s
     0     0   54.77864    0   81   83.00000   54.77864  34.0%     -    0s
     0     0   54.85779    0   79   83.00000   54.85779  33.9%     -    0s
     0     0   54.89833    0   79   83.00000   54.89833  33.9%     -    0s
     0     0   54.89938    0   82   83.00000   54.89938  33.9%     -    0s
     0     0   55.28677    0   75   83.00000   55.28677  33.4%     -    0s
     0     0   55.28677    0   76   83.00000   55.28677  33.4%     -    0s
     0     0   56.75517    0   72   83.00000   56.75517  31.6%     -    0s
     0     0   56.75517    0   75   83.00000   56.75517  31.6%     -    0s
     0     0   56.94918    0  113   83.00000   56.94918  31.4%     -    0s
     0     0   59.03774    0  113   83.00000   59.03774  28.9%     -    0s
     0     0   59.07216    0  115   83.00000   59.07216  28.8%     -    0s
     0     0   59.07216    0  116   83.00000   59.07216  28.8%     -    0s
     0     0   60.81709    0   62   83.00000   60.81709  26.7%     -    0s
H    0     0                      81.0000000   60.81709  24.9%     -    0s
     0     0   60.81899    0   65   81.00000   60.81899  24.9%     -    0s
     0     0   61.81048    0   99   81.00000   61.81048  23.7%     -    0s
     0     0   61.81097    0   99   81.00000   61.81097  23.7%     -    0s
     0     0   63.17442    0   39   81.00000   63.17442  22.0%     -    0s
     0     0   63.22174    0   75   81.00000   63.22174  21.9%     -    0s
     0     0   63.22174    0   76   81.00000   63.22174  21.9%     -    0s
     0     0   63.22174    0   73   81.00000   63.22174  21.9%     -    0s
     0     0   63.26604    0   62   81.00000   63.26604  21.9%     -    0s
     0     0   63.26723    0   61   81.00000   63.26723  21.9%     -    0s
     0     0   63.26723    0   62   81.00000   63.26723  21.9%     -    0s
     0     0   63.26723    0   61   81.00000   63.26723  21.9%     -    0s
     0     0   63.26723    0   34   81.00000   63.26723  21.9%     -    0s
     0     0   63.26723    0   49   81.00000   63.26723  21.9%     -    0s
     0     0   63.26723    0   39   81.00000   63.26723  21.9%     -    0s
     0     0   63.26723    0   35   81.00000   63.26723  21.9%     -    0s
     0     0   66.02077    0   54   81.00000   66.02077  18.5%     -    0s
     0     0   66.03904    0   55   81.00000   66.03904  18.5%     -    0s
     0     0   66.03904    0   58   81.00000   66.03904  18.5%     -    0s
     0     0   66.05251    0   56   81.00000   66.05251  18.5%     -    0s
     0     0   66.06649    0   50   81.00000   66.06649  18.4%     -    0s
     0     0   66.08704    0   50   81.00000   66.08704  18.4%     -    0s
     0     0   66.08704    0   51   81.00000   66.08704  18.4%     -    0s
     0     0   66.16663    0   60   81.00000   66.16663  18.3%     -    0s
     0     0   66.18243    0   59   81.00000   66.18243  18.3%     -    0s
     0     0   66.18352    0   60   81.00000   66.18352  18.3%     -    0s
     0     0   66.19778    0   66   81.00000   66.19778  18.3%     -    0s
     0     0   66.19778    0   67   81.00000   66.19778  18.3%     -    0s
     0     0   66.23102    0   64   81.00000   66.23102  18.2%     -    0s
     0     0   66.23286    0   66   81.00000   66.23286  18.2%     -    0s
     0     0   66.31176    0   51   81.00000   66.31176  18.1%     -    0s
     0     0   66.31438    0   52   81.00000   66.31438  18.1%     -    0s
     0     0   66.32190    0   50   81.00000   66.32190  18.1%     -    0s
     0     0   66.32204    0   50   81.00000   66.32204  18.1%     -    0s
     0     0   66.33931    0   53   81.00000   66.33931  18.1%     -    0s
     0     0   66.36646    0   50   81.00000   66.36646  18.1%     -    0s
     0     0   66.38724    0   46   81.00000   66.38724  18.0%     -    0s
     0     0   66.38724    0   48   81.00000   66.38724  18.0%     -    0s
     0     0   66.38724    0   45   81.00000   66.38724  18.0%     -    0s
     0     0   66.38724    0   45   81.00000   66.38724  18.0%     -    0s
     0     0   66.38851    0   47   81.00000   66.38851  18.0%     -    0s
     0     0   66.38851    0   41   81.00000   66.38851  18.0%     -    0s
     0     2   66.38851    0   37   81.00000   66.38851  18.0%     -    0s

Cutting planes:
  Gomory: 3
  Implied bound: 26
  Clique: 1
  MIR: 30
  StrongCG: 4

Explored 149 nodes (7062 simplex iterations) in 0.99 seconds
Thread count was 4 (of 4 available processors)

Solution count 3: 81 83 98 

Optimal solution found (tolerance 1.00e-04)
Best objective 8.100000000000e+01, best bound 8.100000000000e+01, gap 0.0000%

Gurobi 8.1.1 (win64) logging started 11/23/19 16:03:09

Changed value of parameter LogFile to logs/full/feas/full-06-15-0.log
   Prev: gurobi.log  Default: 
Changed value of parameter LogToConsole to 0
   Prev: 1  Min: 0  Max: 1  Default: 1
Changed value of parameter TimeLimit to 3600.0
   Prev: 1e+100  Min: 0.0  Max: 1e+100  Default: 1e+100
Optimize a model with 911 rows, 428 columns and 3416 nonzeros
Variable types: 0 continuous, 428 integer (420 binary)
Coefficient statistics:
  Matrix range     [1e+00, 2e+02]
  Objective range  [1e+00, 1e+00]
  Bounds range     [1e+00, 1e+00]
  RHS range        [1e+00, 2e+02]
Presolve time: 0.01s
Presolved: 911 rows, 428 columns, 3416 nonzeros
Variable types: 0 continuous, 428 integer (420 binary)

Root relaxation: objective 2.800000e+01, 124 iterations, 0.00 seconds

    Nodes    |    Current Node    |     Objective Bounds      |     Work
 Expl Unexpl |  Obj  Depth IntInf | Incumbent    BestBd   Gap | It/Node Time

     0     0   28.00000    0   76          -   28.00000      -     -    0s
     0     0   28.00000    0   89          -   28.00000      -     -    0s
     0     0   29.71412    0   72          -   29.71412      -     -    0s
     0     0   31.97951    0   63          -   31.97951      -     -    0s
     0     0   31.97951    0   61          -   31.97951      -     -    0s
     0     0   32.56561    0   60          -   32.56561      -     -    0s
     0     0   32.56561    0   62          -   32.56561      -     -    0s
     0     0   33.03800    0   69          -   33.03800      -     -    0s
     0     0   33.45279    0   89          -   33.45279      -     -    0s
     0     0   33.45279    0   88          -   33.45279      -     -    0s
     0     0   33.77803    0   87          -   33.77803      -     -    0s
     0     0   33.78744    0   81          -   33.78744      -     -    0s
     0     0   33.78744    0   77          -   33.78744      -     -    0s
     0     0   33.97951    0   82          -   33.97951      -     -    0s
     0     0   34.40146    0   74          -   34.40146      -     -    0s
     0     0   34.49582    0   78          -   34.49582      -     -    0s
     0     0   34.49593    0   82          -   34.49593      -     -    0s
     0     0   34.71770    0   60          -   34.71770      -     -    0s
     0     0   34.97386    0   74          -   34.97386      -     -    0s
     0     0   35.06856    0   77          -   35.06856      -     -    0s
     0     0   35.20099    0   74          -   35.20099      -     -    0s
     0     0   35.20099    0   81          -   35.20099      -     -    0s
     0     0   35.22883    0   70          -   35.22883      -     -    0s
     0     0   35.25947    0   78          -   35.25947      -     -    0s
     0     0   35.25947    0   80          -   35.25947      -     -    0s
     0     0   35.34928    0   78          -   35.34928      -     -    0s
     0     0   35.34928    0   80          -   35.34928      -     -    0s
     0     0   35.34928    0   83          -   35.34928      -     -    0s
     0     0   35.34928    0   68          -   35.34928      -     -    0s
     0     2   35.34928    0   64          -   35.34928      -     -    0s
H14550  6232                     117.0000000   55.93440  52.2%   4.9    3s
H14741  6093                     113.0000000   56.00000  50.4%   4.9    3s
H14807  5823                     109.0000000   56.00000  48.6%   4.9    3s
H14812  5461                     105.0000000   56.00000  46.7%   4.9    3s
 17975  6728 infeasible  101       105.00000   59.00000  43.8%   5.4    5s
H20986  7411                      91.0000000   61.00000  33.0%   5.5    9s
 21003  7422   71.00000   54   44   91.00000   61.00000  33.0%   5.5   10s
H25551  7616                      86.0000000   63.00000  26.7%   7.5   14s
 25564  7612   67.00212   63   41   86.00000   63.00000  26.7%   7.6   15s
*25768  7033              74      84.0000000   65.00000  22.6%   7.8   16s
*25769  6623              74      83.0000000   65.00000  21.7%   7.8   16s
*26066  5713              46      80.0000000   66.00000  17.5%   8.0   16s

Cutting planes:
  Gomory: 17
  Implied bound: 36
  MIR: 10
  StrongCG: 1
  Flow cover: 65
  Zero half: 3

Explored 27625 nodes (243669 simplex iterations) in 17.40 seconds
Thread count was 4 (of 4 available processors)

Solution count 9: 80 83 84 ... 117

Optimal solution found (tolerance 1.00e-04)
Best objective 8.000000000000e+01, best bound 8.000000000000e+01, gap 0.0000%

Gurobi 8.1.1 (win64) logging started 11/23/19 16:03:26

Changed value of parameter LogFile to logs/full/feas/full-06-15-0.log
   Prev: gurobi.log  Default: 
Changed value of parameter LogToConsole to 0
   Prev: 1  Min: 0  Max: 1  Default: 1
Changed value of parameter TimeLimit to 3600.0
   Prev: 1e+100  Min: 0.0  Max: 1e+100  Default: 1e+100
Optimize a model with 687 rows, 322 columns and 2562 nonzeros
Variable types: 0 continuous, 322 integer (315 binary)
Coefficient statistics:
  Matrix range     [1e+00, 2e+02]
  Objective range  [1e+00, 1e+00]
  Bounds range     [1e+00, 1e+00]
  RHS range        [1e+00, 2e+02]
Presolve time: 0.01s
Presolved: 687 rows, 322 columns, 2562 nonzeros
Variable types: 0 continuous, 322 integer (315 binary)

Root relaxation: objective 2.100000e+01, 120 iterations, 0.00 seconds

    Nodes    |    Current Node    |     Objective Bounds      |     Work
 Expl Unexpl |  Obj  Depth IntInf | Incumbent    BestBd   Gap | It/Node Time

     0     0   21.00000    0   86          -   21.00000      -     -    0s
     0     0   22.63963    0   83          -   22.63963      -     -    0s
     0     0   26.67387    0   80          -   26.67387      -     -    0s
     0     0   26.67387    0   79          -   26.67387      -     -    0s
     0     0   26.90199    0   87          -   26.90199      -     -    0s
     0     0   27.38746    0   86          -   27.38746      -     -    0s
     0     0   27.38746    0   88          -   27.38746      -     -    0s
     0     0   28.26977    0   80          -   28.26977      -     -    0s
     0     0   28.45930    0   70          -   28.45930      -     -    0s
     0     0   28.46388    0   86          -   28.46388      -     -    0s
     0     0   28.48671    0   91          -   28.48671      -     -    0s
     0     0   28.49475    0   96          -   28.49475      -     -    0s
     0     0   28.50747    0   98          -   28.50747      -     -    0s
     0     0   28.58454    0   93          -   28.58454      -     -    0s
     0     0   28.58454    0   95          -   28.58454      -     -    0s
     0     0   30.41635    0   88          -   30.41635      -     -    0s
     0     0   30.41635    0   82          -   30.41635      -     -    0s
     0     0   30.41741    0   60          -   30.41741      -     -    0s
     0     0   30.64263    0   97          -   30.64263      -     -    0s
     0     0   30.66637    0   98          -   30.66637      -     -    0s
     0     0   30.68006    0  101          -   30.68006      -     -    0s
     0     0   30.68006    0  101          -   30.68006      -     -    0s
     0     0   31.88603    0   68          -   31.88603      -     -    0s
     0     0   31.90134    0   71          -   31.90134      -     -    0s
     0     0   31.94262    0   74          -   31.94262      -     -    0s
     0     0   31.94262    0   75          -   31.94262      -     -    0s
     0     0   32.71440    0   78          -   32.71440      -     -    0s
     0     0   32.82895    0   56          -   32.82895      -     -    0s
     0     0   32.90728    0   53          -   32.90728      -     -    0s
     0     0   32.90728    0   54          -   32.90728      -     -    0s
     0     0   33.46283    0   64          -   33.46283      -     -    0s
     0     0   34.13414    0   70          -   34.13414      -     -    0s
     0     0   34.13999    0   74          -   34.13999      -     -    0s
     0     0   34.94630    0   56          -   34.94630      -     -    0s
     0     0   34.98346    0   62          -   34.98346      -     -    0s
     0     0   34.98346    0   59          -   34.98346      -     -    0s
     0     0   35.00890    0  106          -   35.00890      -     -    0s
     0     0   35.00890    0  106          -   35.00890      -     -    0s
     0     2   35.00890    0  103          -   35.00890      -     -    0s
H 9805  5186                     139.0000000   53.00000  61.9%   7.3    3s
H 9864  4927                     125.0000000   53.00000  57.6%   7.3    3s
 10508  5270   53.00000   27   70  125.00000   53.00000  57.6%   7.8    5s
H10534  5010                     123.0000000   53.00000  56.9%   8.1    5s
*14541  6279              56     107.0000000   58.02007  45.8%  12.7    9s
 15651  6597   97.18082  140   43  107.00000   59.00000  44.9%  13.3   10s
H16066  6337                     105.0000000   59.00000  43.8%  14.1   10s
H16069  6113                     104.0000000   59.00000  43.3%  14.2   10s
 21253  7438   85.00000  210  106  104.00000   61.00000  41.3%  16.5   20s
 21307  7474   66.29954  117   88  104.00000   66.29954  36.3%  16.5   25s
H21329  7113                      89.0000000   67.83875  23.8%  16.5   28s
 21337  7118   73.00000   97   89   89.00000   68.11794  23.5%  16.4   30s
H21346  6766                      82.0000000   68.35894  16.6%  16.4   31s
 21381  6791   79.84709  119  102   82.00000   68.65554  16.3%  16.8   35s
 21419  6816   82.00000   76  102   82.00000   68.80764  16.1%  16.7   40s
 21457  6842   82.00000   69  102   82.00000   68.88908  16.0%  16.7   45s
 21500  6870   79.00000  129  100   82.00000   69.04392  15.8%  16.7   50s
 21537  6895   73.00000   97  107   82.00000   69.09824  15.7%  16.7   55s
 21586  6919   69.37792   55   82   82.00000   69.20484  15.6%  17.0   60s

Cutting planes:
  Gomory: 1
  Implied bound: 4
  MIR: 65
  StrongCG: 3
  Flow cover: 120
  Zero half: 2

Explored 22362 nodes (419560 simplex iterations) in 62.23 seconds
Thread count was 4 (of 4 available processors)

Solution count 8: 82 89 104 ... 139

Optimal solution found (tolerance 1.00e-04)
Best objective 8.200000000000e+01, best bound 8.200000000000e+01, gap 0.0000%
